
Gurobi 8.1.1 (linux64, Python) logging started Mon Feb 17 15:28:01 2020

Academic license - for non-commercial use only
Optimize a model with 20 rows, 90 columns and 180 nonzeros
Coefficient statistics:
  Matrix range     [1e+00, 1e+00]
  Objective range  [2e+01, 1e+02]
  Bounds range     [1e+00, 1e+00]
  RHS range        [1e+00, 1e+00]
Presolve time: 0.01s
Presolved: 20 rows, 90 columns, 180 nonzeros

Iteration    Objective       Primal Inf.    Dual Inf.      Time
       0    2.5945816e+02   6.000000e+00   0.000000e+00      0s
       5    3.2187345e+02   0.000000e+00   0.000000e+00      0s

Solved in 5 iterations and 0.01 seconds
Optimal objective  3.218734537e+02
Optimize a model with 21 rows, 90 columns and 182 nonzeros
Coefficient statistics:
  Matrix range     [1e+00, 1e+00]
  Objective range  [2e+01, 1e+02]
  Bounds range     [1e+00, 1e+00]
  RHS range        [1e+00, 1e+00]
Iteration    Objective       Primal Inf.    Dual Inf.      Time
       0    3.2187345e+02   9.999000e-01   0.000000e+00      0s
       1    3.2502182e+02   0.000000e+00   0.000000e+00      0s

Solved in 1 iterations and 0.00 seconds
Optimal objective  3.250218184e+02
Optimize a model with 22 rows, 90 columns and 184 nonzeros
Coefficient statistics:
  Matrix range     [1e+00, 1e+00]
  Objective range  [2e+01, 1e+02]
  Bounds range     [1e+00, 1e+00]
  RHS range        [1e+00, 1e+00]
Iteration    Objective       Primal Inf.    Dual Inf.      Time
       0    3.2502182e+02   9.999000e-01   0.000000e+00      0s
       3    3.3719078e+02   0.000000e+00   0.000000e+00      0s

Solved in 3 iterations and 0.00 seconds
Optimal objective  3.371907833e+02
Optimize a model with 23 rows, 90 columns and 186 nonzeros
Coefficient statistics:
  Matrix range     [1e+00, 1e+00]
  Objective range  [2e+01, 1e+02]
  Bounds range     [1e+00, 1e+00]
  RHS range        [1e+00, 1e+00]
Iteration    Objective       Primal Inf.    Dual Inf.      Time
       0    3.3719078e+02   9.999000e-01   0.000000e+00      0s
       5    3.4271462e+02   0.000000e+00   0.000000e+00      0s

Solved in 5 iterations and 0.00 seconds
Optimal objective  3.427146231e+02

Gurobi 8.1.1 (linux64, Python) logging started Mon Feb 17 15:28:22 2020

Academic license - for non-commercial use only
Optimize a model with 20 rows, 90 columns and 180 nonzeros
Coefficient statistics:
  Matrix range     [1e+00, 1e+00]
  Objective range  [2e+01, 1e+02]
  Bounds range     [1e+00, 1e+00]
  RHS range        [1e+00, 1e+00]
Presolve time: 0.00s
Presolved: 20 rows, 90 columns, 180 nonzeros

Iteration    Objective       Primal Inf.    Dual Inf.      Time
       0    2.5945816e+02   6.000000e+00   0.000000e+00      0s
       5    3.2187345e+02   0.000000e+00   0.000000e+00      0s

Solved in 5 iterations and 0.00 seconds
Optimal objective  3.218734537e+02
Optimize a model with 21 rows, 90 columns and 182 nonzeros
Coefficient statistics:
  Matrix range     [1e+00, 1e+00]
  Objective range  [2e+01, 1e+02]
  Bounds range     [1e+00, 1e+00]
  RHS range        [1e+00, 1e+00]
Iteration    Objective       Primal Inf.    Dual Inf.      Time
       0    3.2187345e+02   9.999000e-01   0.000000e+00      0s
       1    3.2502182e+02   0.000000e+00   0.000000e+00      0s

Solved in 1 iterations and 0.00 seconds
Optimal objective  3.250218184e+02
Optimize a model with 22 rows, 90 columns and 184 nonzeros
Coefficient statistics:
  Matrix range     [1e+00, 1e+00]
  Objective range  [2e+01, 1e+02]
  Bounds range     [1e+00, 1e+00]
  RHS range        [1e+00, 1e+00]
Iteration    Objective       Primal Inf.    Dual Inf.      Time
       0    3.2502182e+02   9.999000e-01   0.000000e+00      0s
       3    3.3719078e+02   0.000000e+00   0.000000e+00      0s

Solved in 3 iterations and 0.19 seconds
Optimal objective  3.371907833e+02
Optimize a model with 23 rows, 90 columns and 186 nonzeros
Coefficient statistics:
  Matrix range     [1e+00, 1e+00]
  Objective range  [2e+01, 1e+02]
  Bounds range     [1e+00, 1e+00]
  RHS range        [1e+00, 1e+00]
Iteration    Objective       Primal Inf.    Dual Inf.      Time
       0    3.3719078e+02   9.999000e-01   0.000000e+00      0s
       5    3.4271462e+02   0.000000e+00   0.000000e+00      0s

Solved in 5 iterations and 0.00 seconds
Optimal objective  3.427146231e+02

Gurobi 8.1.1 (linux64, Python) logging started Mon Feb 17 15:28:24 2020

Academic license - for non-commercial use only
Optimize a model with 20 rows, 90 columns and 180 nonzeros
Coefficient statistics:
  Matrix range     [1e+00, 1e+00]
  Objective range  [2e+01, 1e+02]
  Bounds range     [1e+00, 1e+00]
  RHS range        [1e+00, 1e+00]
Presolve time: 0.00s
Presolved: 20 rows, 90 columns, 180 nonzeros

Iteration    Objective       Primal Inf.    Dual Inf.      Time
       0    2.5945816e+02   6.000000e+00   0.000000e+00      0s
       5    3.2187345e+02   0.000000e+00   0.000000e+00      0s

Solved in 5 iterations and 0.01 seconds
Optimal objective  3.218734537e+02
Optimize a model with 21 rows, 90 columns and 182 nonzeros
Coefficient statistics:
  Matrix range     [1e+00, 1e+00]
  Objective range  [2e+01, 1e+02]
  Bounds range     [1e+00, 1e+00]
  RHS range        [1e+00, 1e+00]
Iteration    Objective       Primal Inf.    Dual Inf.      Time
       0    3.2187345e+02   9.999000e-01   0.000000e+00      0s
       1    3.2502182e+02   0.000000e+00   0.000000e+00      0s

Solved in 1 iterations and 0.00 seconds
Optimal objective  3.250218184e+02
Optimize a model with 22 rows, 90 columns and 184 nonzeros
Coefficient statistics:
  Matrix range     [1e+00, 1e+00]
  Objective range  [2e+01, 1e+02]
  Bounds range     [1e+00, 1e+00]
  RHS range        [1e+00, 1e+00]
Iteration    Objective       Primal Inf.    Dual Inf.      Time
       0    3.2502182e+02   9.999000e-01   0.000000e+00      0s
       3    3.3719078e+02   0.000000e+00   0.000000e+00      0s

Solved in 3 iterations and 0.00 seconds
Optimal objective  3.371907833e+02
Optimize a model with 23 rows, 90 columns and 186 nonzeros
Coefficient statistics:
  Matrix range     [1e+00, 1e+00]
  Objective range  [2e+01, 1e+02]
  Bounds range     [1e+00, 1e+00]
  RHS range        [1e+00, 1e+00]
Iteration    Objective       Primal Inf.    Dual Inf.      Time
       0    3.3719078e+02   9.999000e-01   0.000000e+00      0s
       5    3.4271462e+02   0.000000e+00   0.000000e+00      0s

Solved in 5 iterations and 0.00 seconds
Optimal objective  3.427146231e+02

Gurobi 8.1.1 (linux64, Python) logging started Mon Feb 17 15:28:42 2020

Academic license - for non-commercial use only
Optimize a model with 20 rows, 90 columns and 180 nonzeros
Coefficient statistics:
  Matrix range     [1e+00, 1e+00]
  Objective range  [2e+01, 1e+02]
  Bounds range     [1e+00, 1e+00]
  RHS range        [1e+00, 1e+00]
Presolve time: 0.00s
Presolved: 20 rows, 90 columns, 180 nonzeros

Iteration    Objective       Primal Inf.    Dual Inf.      Time
       0    2.5945816e+02   6.000000e+00   0.000000e+00      0s
       5    3.2187345e+02   0.000000e+00   0.000000e+00      0s

Solved in 5 iterations and 0.00 seconds
Optimal objective  3.218734537e+02

Gurobi 8.1.1 (linux64, Python) logging started Mon Feb 17 15:28:54 2020

Academic license - for non-commercial use only
Optimize a model with 20 rows, 90 columns and 180 nonzeros
Coefficient statistics:
  Matrix range     [1e+00, 1e+00]
  Objective range  [2e+01, 1e+02]
  Bounds range     [1e+00, 1e+00]
  RHS range        [1e+00, 1e+00]
Presolve time: 0.00s
Presolved: 20 rows, 90 columns, 180 nonzeros

Iteration    Objective       Primal Inf.    Dual Inf.      Time
       0    2.5945816e+02   6.000000e+00   0.000000e+00      0s
       5    3.2187345e+02   0.000000e+00   0.000000e+00      0s

Solved in 5 iterations and 0.00 seconds
Optimal objective  3.218734537e+02
Optimize a model with 21 rows, 90 columns and 182 nonzeros
Coefficient statistics:
  Matrix range     [1e+00, 1e+00]
  Objective range  [2e+01, 1e+02]
  Bounds range     [1e+00, 1e+00]
  RHS range        [1e+00, 1e+00]
Iteration    Objective       Primal Inf.    Dual Inf.      Time
       0    3.2187345e+02   9.999000e-01   0.000000e+00      0s
       1    3.2502182e+02   0.000000e+00   0.000000e+00      0s

Solved in 1 iterations and 0.00 seconds
Optimal objective  3.250218184e+02
Optimize a model with 22 rows, 90 columns and 184 nonzeros
Coefficient statistics:
  Matrix range     [1e+00, 1e+00]
  Objective range  [2e+01, 1e+02]
  Bounds range     [1e+00, 1e+00]
  RHS range        [1e+00, 1e+00]
Iteration    Objective       Primal Inf.    Dual Inf.      Time
       0    3.2502182e+02   9.999000e-01   0.000000e+00      0s
       3    3.3719078e+02   0.000000e+00   0.000000e+00      0s

Solved in 3 iterations and 0.01 seconds
Optimal objective  3.371907833e+02
Optimize a model with 23 rows, 90 columns and 186 nonzeros
Coefficient statistics:
  Matrix range     [1e+00, 1e+00]
  Objective range  [2e+01, 1e+02]
  Bounds range     [1e+00, 1e+00]
  RHS range        [1e+00, 1e+00]
Iteration    Objective       Primal Inf.    Dual Inf.      Time
       0    3.3719078e+02   9.999000e-01   0.000000e+00      0s
       5    3.4271462e+02   0.000000e+00   0.000000e+00      0s

Solved in 5 iterations and 0.01 seconds
Optimal objective  3.427146231e+02

Gurobi 8.1.1 (linux64, Python) logging started Mon Feb 17 15:29:15 2020

Academic license - for non-commercial use only
Optimize a model with 200 rows, 9900 columns and 19800 nonzeros
Coefficient statistics:
  Matrix range     [1e+00, 1e+00]
  Objective range  [1e+00, 1e+02]
  Bounds range     [1e+00, 1e+00]
  RHS range        [1e+00, 1e+00]
Presolve time: 0.01s
Presolved: 200 rows, 9900 columns, 19800 nonzeros

Iteration    Objective       Primal Inf.    Dual Inf.      Time
       0    8.9442719e+00   9.800000e+01   0.000000e+00      0s
     285    5.7712533e+02   0.000000e+00   0.000000e+00      0s

Solved in 285 iterations and 0.07 seconds
Optimal objective  5.771253343e+02

Gurobi 8.1.1 (linux64, Python) logging started Mon Feb 17 15:29:32 2020

Academic license - for non-commercial use only
Optimize a model with 20 rows, 90 columns and 180 nonzeros
Coefficient statistics:
  Matrix range     [1e+00, 1e+00]
  Objective range  [2e+01, 1e+02]
  Bounds range     [1e+00, 1e+00]
  RHS range        [1e+00, 1e+00]
Presolve time: 0.00s
Presolved: 20 rows, 90 columns, 180 nonzeros

Iteration    Objective       Primal Inf.    Dual Inf.      Time
       0    2.5945816e+02   6.000000e+00   0.000000e+00      0s
       5    3.2187345e+02   0.000000e+00   0.000000e+00      0s

Solved in 5 iterations and 0.00 seconds
Optimal objective  3.218734537e+02

Gurobi 8.1.1 (linux64, Python) logging started Mon Feb 17 15:29:55 2020

Academic license - for non-commercial use only
Optimize a model with 20 rows, 90 columns and 180 nonzeros
Coefficient statistics:
  Matrix range     [1e+00, 1e+00]
  Objective range  [2e+01, 1e+02]
  Bounds range     [1e+00, 1e+00]
  RHS range        [1e+00, 1e+00]
Presolve time: 0.00s
Presolved: 20 rows, 90 columns, 180 nonzeros

Iteration    Objective       Primal Inf.    Dual Inf.      Time
       0    2.5945816e+02   6.000000e+00   0.000000e+00      0s
       5    3.2187345e+02   0.000000e+00   0.000000e+00      0s

Solved in 5 iterations and 0.00 seconds
Optimal objective  3.218734537e+02

Gurobi 8.1.1 (linux64, Python) logging started Mon Feb 17 15:31:03 2020

Academic license - for non-commercial use only
Optimize a model with 20 rows, 90 columns and 180 nonzeros
Coefficient statistics:
  Matrix range     [1e+00, 1e+00]
  Objective range  [2e+01, 1e+02]
  Bounds range     [1e+00, 1e+00]
  RHS range        [1e+00, 1e+00]
Presolve time: 0.01s
Presolved: 20 rows, 90 columns, 180 nonzeros

Iteration    Objective       Primal Inf.    Dual Inf.      Time
       0    2.5945816e+02   6.000000e+00   0.000000e+00      0s
       5    3.2187345e+02   0.000000e+00   0.000000e+00      0s

Solved in 5 iterations and 0.01 seconds
Optimal objective  3.218734537e+02

Gurobi 8.1.1 (linux64, Python) logging started Mon Feb 17 15:31:42 2020

Academic license - for non-commercial use only
Optimize a model with 20 rows, 90 columns and 180 nonzeros
Coefficient statistics:
  Matrix range     [1e+00, 1e+00]
  Objective range  [2e+01, 1e+02]
  Bounds range     [1e+00, 1e+00]
  RHS range        [1e+00, 1e+00]
Presolve time: 0.00s
Presolved: 20 rows, 90 columns, 180 nonzeros

Iteration    Objective       Primal Inf.    Dual Inf.      Time
       0    2.5945816e+02   6.000000e+00   0.000000e+00      0s
       5    3.2187345e+02   0.000000e+00   0.000000e+00      0s

Solved in 5 iterations and 0.00 seconds
Optimal objective  3.218734537e+02
Optimize a model with 21 rows, 90 columns and 182 nonzeros
Coefficient statistics:
  Matrix range     [1e+00, 1e+00]
  Objective range  [2e+01, 1e+02]
  Bounds range     [1e+00, 1e+00]
  RHS range        [1e+00, 1e+00]
Iteration    Objective       Primal Inf.    Dual Inf.      Time
       0    3.2187345e+02   9.999000e-01   0.000000e+00      0s
       1    3.2502182e+02   0.000000e+00   0.000000e+00      0s

Solved in 1 iterations and 0.01 seconds
Optimal objective  3.250218184e+02

Gurobi 8.1.1 (linux64, Python) logging started Mon Feb 17 15:32:21 2020

Academic license - for non-commercial use only
Optimize a model with 20 rows, 90 columns and 180 nonzeros
Coefficient statistics:
  Matrix range     [1e+00, 1e+00]
  Objective range  [2e+01, 1e+02]
  Bounds range     [1e+00, 1e+00]
  RHS range        [1e+00, 1e+00]
Presolve time: 0.00s
Presolved: 20 rows, 90 columns, 180 nonzeros

Iteration    Objective       Primal Inf.    Dual Inf.      Time
       0    2.5945816e+02   6.000000e+00   0.000000e+00      0s
       5    3.2187345e+02   0.000000e+00   0.000000e+00      0s

Solved in 5 iterations and 0.00 seconds
Optimal objective  3.218734537e+02
Optimize a model with 21 rows, 90 columns and 182 nonzeros
Coefficient statistics:
  Matrix range     [1e+00, 1e+00]
  Objective range  [2e+01, 1e+02]
  Bounds range     [1e+00, 1e+00]
  RHS range        [1e+00, 1e+00]
Iteration    Objective       Primal Inf.    Dual Inf.      Time
       0    3.2187345e+02   9.999000e-01   0.000000e+00      0s
       1    3.2502182e+02   0.000000e+00   0.000000e+00      0s

Solved in 1 iterations and 0.00 seconds
Optimal objective  3.250218184e+02

Gurobi 8.1.1 (linux64, Python) logging started Mon Feb 17 15:32:56 2020

Academic license - for non-commercial use only
Optimize a model with 20 rows, 90 columns and 180 nonzeros
Coefficient statistics:
  Matrix range     [1e+00, 1e+00]
  Objective range  [2e+01, 1e+02]
  Bounds range     [1e+00, 1e+00]
  RHS range        [1e+00, 1e+00]
Presolve time: 0.00s
Presolved: 20 rows, 90 columns, 180 nonzeros

Iteration    Objective       Primal Inf.    Dual Inf.      Time
       0    2.5945816e+02   6.000000e+00   0.000000e+00      0s
       5    3.2187345e+02   0.000000e+00   0.000000e+00      0s

Solved in 5 iterations and 0.00 seconds
Optimal objective  3.218734537e+02

Gurobi 8.1.1 (linux64, Python) logging started Mon Feb 17 15:34:46 2020

Academic license - for non-commercial use only
Optimize a model with 20 rows, 90 columns and 180 nonzeros
Coefficient statistics:
  Matrix range     [1e+00, 1e+00]
  Objective range  [2e+01, 1e+02]
  Bounds range     [1e+00, 1e+00]
  RHS range        [1e+00, 1e+00]
Presolve time: 0.00s
Presolved: 20 rows, 90 columns, 180 nonzeros

Iteration    Objective       Primal Inf.    Dual Inf.      Time
       0    2.5945816e+02   6.000000e+00   0.000000e+00      0s
       5    3.2187345e+02   0.000000e+00   0.000000e+00      0s

Solved in 5 iterations and 0.00 seconds
Optimal objective  3.218734537e+02

Gurobi 8.1.1 (linux64, Python) logging started Mon Feb 17 15:35:30 2020

Academic license - for non-commercial use only
Optimize a model with 20 rows, 90 columns and 180 nonzeros
Coefficient statistics:
  Matrix range     [1e+00, 1e+00]
  Objective range  [2e+01, 1e+02]
  Bounds range     [1e+00, 1e+00]
  RHS range        [1e+00, 1e+00]
Presolve time: 0.01s
Presolved: 20 rows, 90 columns, 180 nonzeros

Iteration    Objective       Primal Inf.    Dual Inf.      Time
       0    2.5945816e+02   6.000000e+00   0.000000e+00      0s
       5    3.2187345e+02   0.000000e+00   0.000000e+00      0s

Solved in 5 iterations and 0.01 seconds
Optimal objective  3.218734537e+02
Optimize a model with 21 rows, 90 columns and 182 nonzeros
Coefficient statistics:
  Matrix range     [1e+00, 1e+00]
  Objective range  [2e+01, 1e+02]
  Bounds range     [1e+00, 1e+00]
  RHS range        [1e+00, 1e+00]
Iteration    Objective       Primal Inf.    Dual Inf.      Time
       0    3.2187345e+02   9.999000e-01   0.000000e+00      0s
       1    3.2502182e+02   0.000000e+00   0.000000e+00      0s

Solved in 1 iterations and 0.00 seconds
Optimal objective  3.250218184e+02
